(set-info :status unknown)
(declare-const symbol_71 (_ BitVec 32))
(declare-const symbol_55 (_ BitVec 32))
(declare-const symbol_32 (_ BitVec 32))
(declare-const symbol_35 (_ BitVec 32))
(declare-const symbol_112 (_ BitVec 32))
(declare-const symbol_27 (_ BitVec 32))
(declare-const symbol_73 (_ BitVec 32))
(declare-const symbol_42 (_ BitVec 32))
(declare-const symbol_118 (_ BitVec 32))
(declare-const symbol_110 (_ BitVec 32))
(declare-const symbol_91 (_ BitVec 32))
(declare-const symbol_109 (_ BitVec 32))
(declare-const symbol_58 (_ BitVec 32))
(declare-const symbol_115 (_ BitVec 32))
(declare-const symbol_45 (_ BitVec 32))
(declare-const symbol_113 (_ BitVec 32))
(declare-const symbol_49 (_ BitVec 32))
(declare-const symbol_63 (_ BitVec 32))
(declare-const symbol_128 (_ BitVec 32))
(declare-const symbol_77 (_ BitVec 32))
(declare-const symbol_60 (_ BitVec 32))
(declare-const symbol_10 (_ BitVec 32))
(declare-const symbol_4 (_ BitVec 32))
(declare-const symbol_84 (_ BitVec 32))
(declare-const symbol_75 (_ BitVec 32))
(declare-const symbol_28 (_ BitVec 32))
(declare-const symbol_0 (_ BitVec 32))
(declare-const symbol_82 (_ BitVec 32))
(declare-const symbol_103 (_ BitVec 32))
(declare-const symbol_96 (_ BitVec 32))
(declare-const symbol_65 (_ BitVec 32))
(declare-const symbol_47 (_ BitVec 32))
(declare-const symbol_52 (_ BitVec 32))
(declare-const symbol_16 (_ BitVec 32))
(declare-const symbol_34 (_ BitVec 32))
(declare-const symbol_126 (_ BitVec 32))
(declare-const symbol_117 (_ BitVec 32))
(declare-const symbol_38 (_ BitVec 32))
(declare-const symbol_24 (_ BitVec 32))
(declare-const symbol_105 (_ BitVec 32))
(declare-const symbol_57 (_ BitVec 32))
(declare-const symbol_6 (_ BitVec 32))
(declare-const symbol_1 (_ BitVec 32))
(declare-const symbol_22 (_ BitVec 32))
(declare-const symbol_67 (_ BitVec 32))
(declare-const symbol_62 (_ BitVec 32))
(declare-const symbol_122 (_ BitVec 32))
(declare-const symbol_80 (_ BitVec 32))
(declare-const symbol_18 (_ BitVec 32))
(declare-const symbol_40 (_ BitVec 32))
(declare-const symbol_30 (_ BitVec 32))
(declare-const symbol_37 (_ BitVec 32))
(declare-const symbol_120 (_ BitVec 32))
(declare-const symbol_43 (_ BitVec 32))
(declare-const symbol_99 (_ BitVec 32))
(declare-const symbol_93 (_ BitVec 32))
(declare-const symbol_2 (_ BitVec 32))
(declare-const symbol_107 (_ BitVec 32))
(declare-const symbol_101 (_ BitVec 32))
(declare-const symbol_89 (_ BitVec 32))
(declare-const symbol_124 (_ BitVec 32))
(declare-const symbol_20 (_ BitVec 32))
(declare-const symbol_13 (_ BitVec 32))
(declare-const symbol_53 (_ BitVec 32))
(declare-const symbol_69 (_ BitVec 32))
(declare-const symbol_12 (_ BitVec 32))
(declare-const symbol_8 (_ BitVec 32))
(declare-const symbol_87 (_ BitVec 32))
(assert (not (= symbol_128 (_ bv2 32))))
(assert (not (not (= symbol_126 (_ bv2 32)))))
(assert (not (not (= symbol_124 (_ bv2 32)))))
(assert (not (not (= symbol_122 (_ bv2 32)))))
(assert (not (not (= symbol_120 (_ bv2 32)))))
(assert (not (not (= symbol_118 (_ bv2 32)))))
(assert (not (not (= symbol_117 (_ bv2 32)))))
(assert (not (not (= symbol_115 (_ bv2 32)))))
(assert (not (not (= symbol_113 (_ bv2 32)))))
(assert (not (not (= symbol_112 (_ bv2 32)))))
(assert (not (not (= symbol_110 (_ bv2 32)))))
(assert (not (not (= symbol_109 (_ bv2 32)))))
(assert (not (not (= symbol_107 (_ bv2 32)))))
(assert (not (not (= symbol_105 (_ bv2 32)))))
(assert (not (not (= symbol_103 (_ bv2 32)))))
(assert (not (not (= symbol_101 (_ bv2 32)))))
(assert (not (not (= symbol_99 (_ bv2 32)))))
(assert (not (not (= symbol_96 (_ bv2 32)))))
(assert (not (not (= symbol_93 (_ bv2 32)))))
(assert (not (not (= symbol_91 (_ bv2 32)))))
(assert (not (not (= symbol_89 (_ bv2 32)))))
(assert (not (not (= symbol_87 (_ bv2 32)))))
(assert (not (not (= symbol_84 (_ bv2 32)))))
(assert (not (not (= symbol_82 (_ bv2 32)))))
(assert (not (not (= symbol_80 (_ bv2 32)))))
(assert (not (not (= symbol_77 (_ bv2 32)))))
(assert (not (not (= symbol_75 (_ bv2 32)))))
(assert (not (not (= symbol_73 (_ bv2 32)))))
(assert (not (not (= symbol_71 (_ bv2 32)))))
(assert (not (not (= symbol_69 (_ bv2 32)))))
(assert (not (not (= symbol_67 (_ bv2 32)))))
(assert (not (not (= symbol_65 (_ bv2 32)))))
(assert (not (not (= symbol_63 (_ bv2 32)))))
(assert (not (not (= symbol_62 (_ bv2 32)))))
(assert (not (not (= symbol_60 (_ bv2 32)))))
(assert (not (not (= symbol_58 (_ bv2 32)))))
(assert (not (not (= symbol_57 (_ bv2 32)))))
(assert (not (not (= symbol_55 (_ bv2 32)))))
(assert (not (not (= symbol_53 (_ bv2 32)))))
(assert (not (not (= symbol_52 (_ bv2 32)))))
(assert (not (not (= symbol_49 (_ bv2 32)))))
(assert (not (not (= symbol_47 (_ bv2 32)))))
(assert (not (not (= symbol_45 (_ bv2 32)))))
(assert (not (not (= symbol_43 (_ bv2 32)))))
(assert (not (not (= symbol_42 (_ bv2 32)))))
(assert (not (not (= symbol_40 (_ bv2 32)))))
(assert (not (not (= symbol_38 (_ bv2 32)))))
(assert (not (not (= symbol_37 (_ bv2 32)))))
(assert (not (not (= symbol_35 (_ bv2 32)))))
(assert (not (not (= symbol_34 (_ bv2 32)))))
(assert (not (not (= symbol_32 (_ bv2 32)))))
(assert (not (not (= symbol_30 (_ bv2 32)))))
(assert (not (not (= symbol_28 (_ bv2 32)))))
(assert (not (not (= symbol_27 (_ bv2 32)))))
(assert (not (not (= symbol_24 (_ bv2 32)))))
(assert (not (not (= symbol_22 (_ bv2 32)))))
(assert (not (not (= symbol_20 (_ bv2 32)))))
(assert (not (not (= symbol_18 (_ bv2 32)))))
(assert (not (not (= symbol_16 (_ bv2 32)))))
(assert (not (not (= symbol_13 (_ bv2 32)))))
(assert (not (not (= symbol_12 (_ bv2 32)))))
(assert (not (not (= symbol_10 (_ bv2 32)))))
(assert (not (not (= symbol_8 (_ bv2 32)))))
(assert (not (not (= symbol_6 (_ bv2 32)))))
(assert (not (not (= symbol_4 (_ bv2 32)))))
(assert (not (not (= symbol_2 (_ bv2 32)))))
(assert (not (not (= symbol_1 (_ bv2 32)))))
(assert (not (not (= symbol_0 (_ bv2 32)))))
(check-sat)